/*********************************************
 * OPL 12.6.0.0 Data
 * Author: Adrian Rodriguez Bazaga, Pau Rodriguez Esmerats
 * Creation Date: 21/11/2017 at 23:07:30
 *********************************************/

nNurses=218;
maxConsec=2;
maxPresence=7;
maxHours=5;
minHours=1;
demand= [43 56 78 68 56 78 68 63 61 34 8 11 11 11 13 4 10 2 5 0 36 65 31 54  ];
